Timesteps: 1
s UNSATISFIABLE
real 0.11
user 0.00
sys 0.00
Timesteps: 2
s UNSATISFIABLE
real 0.09
user 0.01
sys 0.00
Timesteps: 3
s UNSATISFIABLE
real 0.07
user 0.02
sys 0.00
Timesteps: 4
s UNSATISFIABLE
real 0.15
user 0.04
sys 0.01
Timesteps: 5
s UNSATISFIABLE
real 0.13
user 0.07
sys 0.00
Timesteps: 6
s UNSATISFIABLE
real 0.18
user 0.13
sys 0.00
Timesteps: 7
s UNSATISFIABLE
real 0.27
user 0.21
sys 0.00
Timesteps: 8
s UNSATISFIABLE
real 0.37
user 0.28
sys 0.00
Timesteps: 9
s UNSATISFIABLE
real 0.60
user 0.52
sys 0.01
Timesteps: 10
s UNSATISFIABLE
real 1.10
user 1.00
sys 0.00
Timesteps: 11
s UNSATISFIABLE
real 2.07
user 1.97
sys 0.01
Timesteps: 12
s UNSATISFIABLE
real 1.68
user 1.56
sys 0.01
Timesteps: 13
s UNSATISFIABLE
real 4.43
user 4.29
sys 0.01
Timesteps: 14
s UNSATISFIABLE
real 4.23
user 4.08
sys 0.01
Timesteps: 15
s UNSATISFIABLE
real 6.24
user 6.07
sys 0.02
Timesteps: 16
s UNSATISFIABLE
real 7.24
user 7.06
sys 0.02
Timesteps: 17
s UNSATISFIABLE
real 8.78
user 8.55
sys 0.02
Timesteps: 18
s UNSATISFIABLE
real 7.32
user 7.12
sys 0.02
Timesteps: 19
s UNSATISFIABLE
real 7.93
user 7.72
sys 0.03
Timesteps: 20
s UNSATISFIABLE
real 8.56
user 8.31
sys 0.02
Timesteps: 21
s UNSATISFIABLE
real 10.65
user 10.41
sys 0.03
Timesteps: 22
s UNSATISFIABLE
real 10.57
user 10.33
sys 0.02
Timesteps: 23
s UNSATISFIABLE
real 12.70
user 12.42
sys 0.04
Timesteps: 24
s UNSATISFIABLE
real 12.00
user 11.72
sys 0.04
Timesteps: 25
s UNSATISFIABLE
real 13.09
user 12.74
sys 0.04
Timesteps: 26
s UNSATISFIABLE
real 14.44
user 14.10
sys 0.04
Timesteps: 27
s UNSATISFIABLE
real 16.05
user 15.73
sys 0.04
Timesteps: 28
s UNSATISFIABLE
real 18.53
user 18.16
sys 0.05
Timesteps: 29
s UNSATISFIABLE
real 24.01
user 23.61
sys 0.06
Timesteps: 30
s UNSATISFIABLE
real 22.91
user 22.52
sys 0.08
Timesteps: 31
s UNSATISFIABLE
real 31.68
user 31.24
sys 0.07
Timesteps: 32
s UNSATISFIABLE
real 35.41
user 34.94
sys 0.08
Timesteps: 33
s UNSATISFIABLE
real 34.48
user 34.01
sys 0.09
Timesteps: 34
s UNSATISFIABLE
real 39.42
user 38.90
sys 0.09
Timesteps: 35
s UNSATISFIABLE
real 71.60
user 70.40
sys 0.13
Timesteps: 36
s UNSATISFIABLE
real 59.48
user 58.35
sys 0.11
Timesteps: 37
s UNSATISFIABLE
real 54.62
user 53.55
sys 0.12
Timesteps: 38
s UNSATISFIABLE
real 53.71
user 53.07
sys 0.12
Timesteps: 39
s UNSATISFIABLE
real 69.24
user 68.48
sys 0.13
Timesteps: 40
s UNSATISFIABLE
real 138.70
user 137.04
sys 0.21
Timesteps: 41
s UNSATISFIABLE
real 125.26
user 123.60
sys 0.20
Timesteps: 42
s UNSATISFIABLE
real 95.38
user 94.06
sys 0.16
Timesteps: 43
s UNSATISFIABLE
real 87.83
user 87.00
sys 0.18
Timesteps: 44
s UNSATISFIABLE
real 106.04
user 105.10
sys 0.19
Timesteps: 45
s UNSATISFIABLE
real 105.70
user 104.77
sys 0.19
Timesteps: 46
s UNSATISFIABLE
real 110.17
user 109.21
sys 0.20
Timesteps: 47
s UNSATISFIABLE
real 127.46
user 126.38
sys 0.26
Timesteps: 48
s UNSATISFIABLE
real 113.27
user 112.30
sys 0.18
Timesteps: 49
s UNSATISFIABLE
real 161.00
user 159.78
sys 0.26
Timesteps: 50
s UNSATISFIABLE
real 137.64
user 136.52
sys 0.24
Timesteps: 51
s UNSATISFIABLE
real 171.42
user 170.15
sys 0.26
Timesteps: 52
s UNSATISFIABLE
real 158.64
user 157.30
sys 0.26
Timesteps: 53
s UNSATISFIABLE
real 156.33
user 155.10
sys 0.23
Timesteps: 54
s UNSATISFIABLE
real 191.97
user 190.48
sys 0.30
Timesteps: 55
s UNSATISFIABLE
real 209.12
user 207.56
sys 0.33
Timesteps: 56
s UNSATISFIABLE
real 227.19
user 225.62
sys 0.32
Timesteps: 57
s UNSATISFIABLE
real 234.49
user 232.88
sys 0.32
Timesteps: 58
s UNSATISFIABLE
real 206.52
user 204.97
sys 0.31
Timesteps: 59
